c 1 GPL
c 2 Unweighted
c 3 Connected
c 4 Src
c 5 Wgt
c 6 MainGpl
c 7 Directed
c 8 Edges
c 9 Cycle
c 10 BFS
c 11 DFS
c 12 Algorithms
c 13 Weighted
c 14 Number
c 15 Undirected
c 16 ShortestPath
p cnf 16 31
1 0
1 -6 0
4 -10 0
4 -11 0
10 11 -4 0
-10 -11 0
5 -13 0
5 -2 0
13 2 -5 0
-13 -2 0
6 -12 0
6 -4 0
6 -5 0
6 -8 0
12 -6 0
5 -6 0
8 -6 0
8 -15 0
8 -7 0
15 7 -8 0
-15 -7 0
12 -9 0
12 -14 0
12 -16 0
12 -3 0
9 14 16 3 -12 0
-9 7 0
-16 7 0
-16 13 0
-3 15 0
-3 4 0
